134 125 83907
45 64 67 40 79 55 46 34 30 63 27 50 58 45 33 73 48 80 72 37 81 52 54 27 42 58 41 53 60 45 73 40 34 57 76 33 70 68 31 43 43 80 70 66 36
72 43 49 46 69 25 64 45 35 73 41 35 61 27 74 39 49 52 37 41 74 57 33 38 27 65 30 73 78 41 65 44 27 48 41 27 57 46 60 62 54 42 26 71 59
3240 2752 3283 1840 5451 1375 2944 1530 1050 4599 1107 1750 3538 1215 2442 2847 2352 4160 2664 1517 5994 2964 1782 1026 1134 3770 1230 3869 4680 1845 4745 1760 918 2736 3116 891 3990 3128 1860 2666 2322 3360 1820 4686 2124
2905 2934 4301 1796 6603 1201 3131 1341 1049 4492 1162 2045 3452 1504 2933 3523 2268 4702 2369 1652 6870 3768 2004 958 1442 3608 1168 3764 4618 1730 4691 1899 1001 3396 4098 841 5105 3325 1669 2663 2785 3636 2210 4748 1950
